[2026-03-01T17:27:10] Logging to: /run/media/saveas/Secondary-Storage/Masters/CS234/CS234_Reinforcement_Learning/Final Project/CS234_Final_Project/results/trajectory_optimization/nlp/TRACK4_330m/base/run_trajopt_demo_output.log
======================================================================
IPOPT TRAJECTORY OPTIMIZATION DEMO (SINGLE STAGE)
======================================================================

1. Loading track: /run/media/saveas/Secondary-Storage/Masters/CS234/CS234_Reinforcement_Learning/Final Project/CS234_Final_Project/maps/TRACK4_330m.mat
   Track length: 330.0 m

2. Creating vehicle model...
   Vehicle: SingleTrackModel(VW_Golf_GTI, weight_transfer=enabled)

3. Loaded obstacles from map: 0

4. Setup:
   N = 120
   ds = 2.75 m
   Obstacle subsamples/segment = 7
   Obstacle enforce midpoints = False
   Obstacle use slack = False
   Track buffer = 0.00 m
   lambda_u = 0.005
   vehicle_radius_m = 0.00
   eps_s = 0.100, eps_kappa = 0.050
   Solver path = Python/CasADi (IPOPT)

======================================================================
SINGLE STAGE: COMBINED OBJECTIVE (ACCEPTANCE-GATED)
======================================================================
Acceptance gates: success=True, max_slack<=0.000e+00, min_clearance>=-0.0010 m
Acceptance policy: practical epsilon mode (allows tiny negative dense clearance).
Initializer: obstacle_aware_init=True, sigma=8.00 m, margin=0.30 m

Attempt 1/4: baseline
  N=120, ds=2.750 m, subsamples=7, obstacle_clearance_m=0.000
Exception of type: DYNAMIC_LIBRARY_FAILURE in file "Common/IpLibraryLoader.cpp" at line 72:
 Exception message: libhsl.so: cannot open shared object file: No such file or directory

EXIT: Library loading failure.
      solver  :   t_proc      (avg)   t_wall      (avg)    n_eval
       total  | 451.00us (451.00us) 455.05us (455.05us)         1
Solver failed with ipopt.linear_solver=ma57: Error in Opti::solve [OptiNode] at .../casadi/core/optistack.cpp:217:
.../casadi/core/optistack_internal.cpp:1338: Assertion "return_success(accept_limit)" failed:
Solver failed. You may use opti.debug.value to investigate the latest values of variables. return_status is 'Invalid_Option'
Retrying with IPOPT default linear solver.

******************************************************************************
This program contains Ipopt, a library for large-scale nonlinear optimization.
 Ipopt is released as open source code under the Eclipse Public License (EPL).
         For more information visit https://github.com/coin-or/Ipopt
******************************************************************************

This is Ipopt version 3.14.11, running with linear solver MUMPS 5.4.1.

Number of nonzeros in equality constraint Jacobian...:    13219
Number of nonzeros in inequality constraint Jacobian.:     1452
Number of nonzeros in Lagrangian Hessian.............:     5080

Total number of variables............................:     1210
                     variables with only lower bounds:        0
                variables with lower and upper bounds:        0
                     variables with only upper bounds:        0
Total number of equality constraints.................:      970
Total number of inequality constraints...............:     1089
        inequality constraints with only lower bounds:      726
   inequality constraints with lower and upper bounds:        0
        inequality constraints with only upper bounds:      363

iter    objective    inf_pr   inf_du lg(mu)  ||d||  lg(rg) alpha_du alpha_pr  ls
   0  3.3000000e+01 3.53e-01 1.07e+00  -1.0 0.00e+00    -  0.00e+00 0.00e+00   0
   1  3.2860272e+01 8.91e-01 9.97e+02  -1.0 5.00e+00   2.0 7.24e-01 1.00e+00H  1
   2  3.2862241e+01 6.66e-01 1.01e+03  -1.0 9.12e-02   3.3 1.00e+00 5.00e-01h  2
   3  3.2864385e+01 8.73e-02 1.36e+02  -1.0 6.04e-02   2.9 1.00e+00 1.00e+00h  1
   4  3.2864397e+01 8.59e-04 3.88e+01  -1.0 5.32e-03   2.4 1.00e+00 1.00e+00h  1
   5  3.2864075e+01 2.85e-07 4.90e-02  -1.0 3.22e-04   1.9 1.00e+00 1.00e+00h  1
   6  1.0035060e+01 1.13e+01 7.28e-01  -2.5 2.65e+01    -  3.59e-01 8.63e-01f  1
   7  1.0315065e+01 1.13e+01 8.32e+02  -2.5 8.79e+00   1.4 1.74e-02 3.19e-02h  3
   8  1.0939326e+01 1.29e+01 2.14e+03  -2.5 8.58e+00   0.9 8.26e-02 7.27e-02h  2
   9  1.1204487e+01 1.53e+01 2.05e+03  -2.5 8.03e+00   1.4 5.60e-02 3.30e-02h  1
iter    objective    inf_pr   inf_du lg(mu)  ||d||  lg(rg) alpha_du alpha_pr  ls
  10  1.1205055e+01 1.53e+01 2.05e+03  -2.5 7.85e+00   1.8 2.86e-01 7.22e-05h  1
  11  1.1927094e+01 1.34e+01 1.72e+03  -2.5 7.91e+00   1.3 3.96e-01 9.10e-02h  1
  12  1.2079236e+01 1.32e+01 1.67e+03  -2.5 8.08e+00   1.7 3.63e-01 2.07e-02h  1
  13  1.2872846e+01 1.18e+01 1.39e+03  -2.5 7.73e+00   1.3 6.57e-01 1.09e-01h  1
  14  1.2964166e+01 1.16e+01 2.18e+03  -2.5 6.57e+00   1.7 4.45e-01 1.39e-02h  1
  15  1.4213713e+01 9.53e+00 1.33e+03  -2.5 6.57e+00   1.2 5.35e-01 1.89e-01h  1
  16  1.4222574e+01 9.52e+00 1.67e+03  -2.5 5.93e+00   1.6 2.46e-01 1.63e-03h  1
  17  1.4682502e+01 8.75e+00 7.55e+02  -2.5 5.53e+00   1.2 1.00e+00 8.31e-02h  1
  18  1.4766189e+01 8.61e+00 2.05e+03  -2.5 5.15e+00   1.6 5.87e-01 1.62e-02h  1
  19  1.5581332e+01 7.38e+00 1.59e+03  -2.5 5.18e+00   1.1 3.59e-01 1.57e-01h  1
iter    objective    inf_pr   inf_du lg(mu)  ||d||  lg(rg) alpha_du alpha_pr  ls
  20  1.5608162e+01 7.34e+00 1.67e+03  -2.5 4.43e+00   1.5 8.65e-02 6.04e-03h  1
  21  1.5831254e+01 7.02e+00 1.63e+03  -2.5 9.04e+00   1.1 1.20e-04 4.74e-02h  1
  22  1.6307870e+01 6.34e+00 1.94e+03  -2.5 4.22e+00   1.5 9.90e-01 1.13e-01h  1
  23  1.6731644e+01 5.79e+00 1.71e+03  -2.5 3.99e+00   1.0 1.21e-01 1.06e-01h  1
  24  1.6821997e+01 5.65e+00 1.67e+03  -2.5 3.65e+00   1.4 6.49e-02 2.51e-02h  1
  25  1.6954809e+01 5.46e+00 1.62e+03  -2.5 3.73e+00   1.0 2.81e-02 3.57e-02h  1
  26  1.7010499e+01 5.38e+00 1.47e+03  -2.5 3.93e+00   1.4 6.65e-01 1.56e-02h  1
  27  1.7422592e+01 4.78e+00 1.28e+03  -2.5 3.88e+00   0.9 1.27e-01 1.13e-01h  1
  28  1.7427940e+01 4.77e+00 1.09e+03  -2.5 4.16e+00   1.3 8.95e-01 1.67e-03h  1
  29  1.7966059e+01 4.00e+00 6.63e+02  -2.5 3.99e+00   0.9 6.75e-01 1.64e-01h  1
iter    objective    inf_pr   inf_du lg(mu)  ||d||  lg(rg) alpha_du alpha_pr  ls
  30  1.8109777e+01 3.79e+00 7.03e+02  -2.5 3.78e+00   1.3 1.00e+00 5.25e-02h  1
  31  1.8564778e+01 3.15e+00 4.43e+02  -2.5 4.97e+00   0.8 5.01e-01 1.68e-01h  1
  32  1.8615956e+01 3.07e+00 5.29e+02  -2.5 2.36e+00   1.2 1.00e+00 2.31e-02h  1
  33  1.9072028e+01 2.44e+00 4.69e+02  -2.5 2.29e+00   0.8 1.20e-01 2.07e-01h  1
  34  1.9118106e+01 2.38e+00 4.15e+02  -2.5 1.77e+00   1.2 1.00e+00 2.64e-02h  1
  35  1.9337010e+01 2.08e+00 3.37e+02  -2.5 1.93e+00   0.7 8.68e-02 1.25e-01h  1
  36  1.9551235e+01 1.79e+00 5.24e+02  -2.5 1.65e+00   1.1 1.00e+00 1.41e-01h  1
  37  2.0084461e+01 1.09e+00 2.85e+02  -2.5 1.43e+00   1.6 5.85e-01 4.10e-01h  1
  38  2.0467107e+01 7.39e-01 1.35e+02  -2.5 9.27e-01   1.1 5.38e-01 4.84e-01h  1
  39  2.0751614e+01 2.54e-01 1.32e+02  -2.5 4.78e-01   1.5 2.52e-01 6.84e-01h  1
iter    objective    inf_pr   inf_du lg(mu)  ||d||  lg(rg) alpha_du alpha_pr  ls
  40  2.0754657e+01 2.49e-01 4.04e+02  -2.5 1.52e-01   1.0 1.00e+00 2.23e-02h  1
  41  2.0824764e+01 1.19e-01 1.96e+02  -2.5 1.47e-01   1.5 4.84e-01 5.23e-01h  1
  42  2.0888839e+01 2.24e-03 3.16e+00  -2.5 7.15e-02   1.0 1.00e+00 1.00e+00h  1
  43  2.0888572e+01 8.55e-05 1.46e+00  -2.5 4.42e-03   0.5 9.22e-01 1.00e+00h  1
  44  2.0891012e+01 1.53e-03 3.58e+00  -2.5 8.21e-02   0.0 1.88e-01 1.00e+00f  1
  45  2.0887851e+01 4.61e-04 5.63e-02  -2.5 2.79e-02  -0.5 9.54e-01 1.00e+00h  1
  46  2.0879439e+01 3.20e-03 1.20e-02  -2.5 1.02e-01  -0.9 1.00e+00 1.00e+00h  1
  47  2.0819479e+01 1.39e-02 7.82e-03  -3.8 2.00e-01  -1.4 1.00e+00 1.00e+00h  1
  48  2.0678186e+01 8.21e-02 7.64e-03  -3.8 5.85e-01  -1.9 1.00e+00 8.82e-01h  1
  49  2.0397497e+01 5.19e-01 1.44e-02  -3.8 1.61e+00  -2.4 1.00e+00 7.47e-01h  1
iter    objective    inf_pr   inf_du lg(mu)  ||d||  lg(rg) alpha_du alpha_pr  ls
  50  1.9980753e+01 3.55e+00 9.85e-03  -3.8 3.80e+00  -2.8 1.00e+00 5.02e-01h  1
  51  1.9976019e+01 2.37e+00 3.63e-01  -3.8 1.37e+00  -1.5 4.49e-01 1.00e+00h  1
  52  1.9964876e+01 1.42e+00 1.23e-01  -3.8 2.33e-01  -1.1 3.05e-01 1.00e+00h  1
  53  1.9924740e+01 4.90e-01 1.14e-01  -3.8 2.52e-01  -1.6 1.00e+00 1.00e+00h  1
  54  1.9811114e+01 1.72e-01 1.61e-02  -3.8 7.17e-01  -2.0 1.00e+00 1.00e+00h  1
  55  1.9759305e+01 1.54e-01 1.50e-02  -3.8 1.82e+00  -2.5 1.00e+00 1.84e-01h  1
  56  1.9614300e+01 2.29e+00 1.20e-02  -3.8 5.70e+00  -3.0 2.67e-01 2.29e-01h  1
  57  1.9483773e+01 1.22e+00 6.81e-02  -3.8 1.24e+00  -2.6 2.36e-01 5.47e-01h  1
  58  1.9461845e+01 1.49e+00 6.69e-02  -3.8 2.30e+01  -3.0 6.96e-02 2.73e-02h  1
  59  1.9439792e+01 1.01e+00 6.97e-01  -3.8 3.51e-01  -1.7 6.20e-02 1.00e+00h  1
iter    objective    inf_pr   inf_du lg(mu)  ||d||  lg(rg) alpha_du alpha_pr  ls
  60  1.9348862e+01 3.49e-01 5.34e-02  -3.8 6.39e-01  -2.2 1.00e+00 1.00e+00h  1
  61  1.9200358e+01 5.23e-01 5.00e-02  -3.8 1.99e+00  -2.7 1.00e+00 6.25e-01h  1
  62  1.8921604e+01 6.43e+00 2.91e-02  -3.8 1.07e+01  -3.1 2.72e-01 4.57e-01h  1
  63  1.8932876e+01 4.44e+00 8.92e-01  -3.8 3.91e+00  -1.8 1.49e-01 5.41e-01h  1
  64  1.8817097e+01 3.95e+00 7.96e-01  -3.8 2.72e+01    -  3.61e-02 1.14e-01h  1
  65  1.8723442e+01 3.28e+00 6.62e-01  -3.8 9.66e+00    -  8.34e-02 1.76e-01h  1
  66  1.8700710e+01 3.08e+00 6.22e-01  -3.8 8.02e+00    -  8.80e-01 6.19e-02h  1
  67  1.8613907e+01 1.80e+00 2.83e-01  -3.8 4.54e+00    -  3.06e-01 6.26e-01h  1
  68  1.8660817e+01 1.77e+00 9.59e-02  -3.8 1.01e+00  -2.3 5.70e-01 7.60e-01h  1
  69  1.8660679e+01 1.37e+00 7.58e-02  -3.8 1.18e+00    -  1.00e+00 2.25e-01h  1
iter    objective    inf_pr   inf_du lg(mu)  ||d||  lg(rg) alpha_du alpha_pr  ls
  70  1.8676016e+01 3.21e-01 2.01e-02  -3.8 8.31e-01    -  1.00e+00 1.00e+00h  1
  71  1.8679114e+01 7.63e-02 4.92e-03  -3.8 4.00e-01    -  1.00e+00 1.00e+00h  1
  72  1.8677704e+01 3.66e-02 2.70e-03  -3.8 5.13e-01    -  1.00e+00 6.38e-01H  1
  73  1.8678238e+01 8.12e-03 1.31e-04  -3.8 9.00e-02    -  1.00e+00 1.00e+00h  1
  74  1.8678063e+01 1.55e-03 5.14e-06  -3.8 4.10e-02    -  1.00e+00 1.00e+00h  1
  75  1.8668563e+01 2.54e-02 5.68e-03  -5.7 4.88e-01    -  9.21e-01 7.36e-01h  1
  76  1.8664236e+01 2.69e-01 1.80e-01  -5.7 6.88e-01    -  5.26e-01 7.51e-01h  1
  77  1.8663122e+01 2.67e-01 5.80e-02  -5.7 7.40e-01    -  1.00e+00 6.29e-01h  1
  78  1.8663938e+01 1.59e-01 1.57e-02  -5.7 2.09e-01    -  8.94e-01 1.00e+00h  1
  79  1.8665239e+01 9.29e-02 6.08e-03  -5.7 2.65e-01    -  1.00e+00 1.00e+00h  1
iter    objective    inf_pr   inf_du lg(mu)  ||d||  lg(rg) alpha_du alpha_pr  ls
  80  1.8662890e+01 8.80e-01 4.43e-01  -5.7 7.02e-01    -  4.18e-01 1.00e+00h  1
  81  1.8661838e+01 7.72e-01 3.81e-01  -5.7 1.05e+00    -  1.00e+00 1.35e-01h  1
  82  1.8661142e+01 8.45e-01 2.36e-02  -5.7 7.42e-01    -  1.00e+00 1.00e+00h  1
  83  1.8653174e+01 4.95e-01 6.24e-02  -5.7 2.13e+00    -  1.65e-01 3.61e-01h  1
  84  1.8655597e+01 3.07e-01 6.64e-03  -5.7 6.79e-01    -  1.00e+00 1.00e+00h  1
  85  1.8658961e+01 1.77e-01 8.58e-03  -5.7 6.92e-01    -  3.25e-01 5.00e-01h  2
  86  1.8665038e+01 3.05e-02 5.91e-03  -5.7 3.53e-01    -  1.00e+00 1.00e+00h  1
  87  1.8665461e+01 3.70e-02 1.44e-03  -5.7 1.06e-01  -1.9 1.00e+00 1.00e+00h  1
  88  1.8663987e+01 1.57e-01 7.95e-03  -5.7 6.65e-01    -  2.14e-01 5.00e-01h  2
  89  1.8664965e+01 8.97e-02 6.15e-03  -5.7 4.88e-01    -  1.00e+00 1.00e+00h  1
iter    objective    inf_pr   inf_du lg(mu)  ||d||  lg(rg) alpha_du alpha_pr  ls
  90  1.8663902e+01 1.36e-01 2.55e-03  -5.7 9.63e-01    -  1.89e-01 2.50e-01h  3
  91  1.8665111e+01 5.76e-02 5.38e-03  -5.7 1.18e-01    -  1.00e+00 1.00e+00h  1
  92  1.8663681e+01 2.22e-01 1.25e-02  -5.7 7.55e-01    -  3.25e-01 5.00e-01h  2
  93  1.8664454e+01 5.40e-02 5.19e-03  -5.7 5.04e-01    -  1.00e+00 7.31e-01h  1
  94  1.8663393e+01 1.95e-01 1.02e-02  -5.7 7.21e-01    -  6.23e-01 5.00e-01h  2
  95  1.8664003e+01 6.37e-02 2.91e-03  -5.7 4.88e-01    -  1.00e+00 5.00e-01h  2
  96  1.8665190e+01 4.52e-02 5.42e-03  -5.7 1.23e-01    -  1.00e+00 1.00e+00h  1
  97  1.8664742e+01 7.54e-02 3.80e-03  -5.7 7.58e-01    -  3.40e-01 1.25e-01h  4
  98  1.8665227e+01 3.99e-02 5.22e-03  -5.7 6.82e-02    -  1.00e+00 1.00e+00h  1
  99  1.8665002e+01 4.61e-02 2.98e-03  -5.7 7.35e-01    -  3.97e-01 6.25e-02h  5
iter    objective    inf_pr   inf_du lg(mu)  ||d||  lg(rg) alpha_du alpha_pr  ls
 100  1.8665260e+01 9.82e-04 3.98e-03  -5.7 3.32e-02    -  1.00e+00 1.00e+00h  1
 101  1.8665246e+01 4.72e-03 3.88e-04  -5.7 5.82e-03    -  1.00e+00 1.00e+00h  1
 102  1.8665262e+01 2.88e-04 1.01e-03  -5.7 3.46e-03    -  1.00e+00 1.00e+00h  1
 103  1.8665263e+01 1.07e-04 2.62e-04  -5.7 1.25e-03    -  1.00e+00 1.00e+00h  1
 104  1.8665263e+01 1.40e-05 4.14e-05  -5.7 6.73e-04    -  1.00e+00 1.00e+00h  1
 105  1.8665263e+01 5.10e-07 1.56e-06  -5.7 1.47e-04    -  1.00e+00 1.00e+00h  1
 106  1.8665125e+01 4.87e-05 1.21e-05  -7.0 1.21e-02    -  1.00e+00 1.00e+00h  1
 107  1.8665126e+01 2.00e-06 4.80e-08  -7.0 2.58e-03    -  1.00e+00 1.00e+00h  1
 108  1.8665126e+01 6.95e-08 2.87e-09  -7.0 7.14e-04    -  1.00e+00 1.00e+00h  1

Number of Iterations....: 108

                                   (scaled)                 (unscaled)
Objective...............:   1.8665125627549095e+01    1.8665125627549095e+01
Dual infeasibility......:   2.8672780078372760e-09    2.8672780078372760e-09
Constraint violation....:   6.4098177164266095e-08    6.9497994026335164e-08
Variable bound violation:   0.0000000000000000e+00    0.0000000000000000e+00
Complementarity.........:   9.9543717781054348e-08    9.9543717781054348e-08
Overall NLP error.......:   9.9543717781054348e-08    9.9543717781054348e-08


Number of objective function evaluations             = 143
Number of objective gradient evaluations             = 109
Number of equality constraint evaluations            = 143
Number of inequality constraint evaluations          = 143
Number of equality constraint Jacobian evaluations   = 109
Number of inequality constraint Jacobian evaluations = 109
Number of Lagrangian Hessian evaluations             = 108
Total seconds in IPOPT                               = 19.188

EXIT: Optimal Solution Found.
      solver  :   t_proc      (avg)   t_wall      (avg)    n_eval
       nlp_f  |   5.48ms ( 38.36us)   5.48ms ( 38.33us)       143
       nlp_g  | 698.49ms (  4.88ms) 706.09ms (  4.94ms)       143
  nlp_grad_f  |   6.68ms ( 60.74us)   6.66ms ( 60.55us)       110
  nlp_hess_l  |  13.26 s (122.74ms)  13.39 s (124.01ms)       108
   nlp_jac_g  |   3.39 s ( 30.83ms)   3.42 s ( 31.12ms)       110
       total  |  19.00 s ( 19.00 s)  19.19 s ( 19.19 s)         1
  Success: True
  Cost: 18.6651
  Iterations: 108
  Solve time: 34.94 s
  Max obstacle slack: 0.0000e+00
  Min obstacle clearance: inf m
  Accepted: True

Accepted attempt: baseline

Generating plots...
  Saved: /run/media/saveas/Secondary-Storage/Masters/CS234/CS234_Reinforcement_Learning/Final Project/CS234_Final_Project/results/trajectory_optimization/nlp/TRACK4_330m/base/ipopt_single_stage_trajectory.png
  Saved: /run/media/saveas/Secondary-Storage/Masters/CS234/CS234_Reinforcement_Learning/Final Project/CS234_Final_Project/results/trajectory_optimization/nlp/TRACK4_330m/base/ipopt_single_stage_states.png
  Saved: /run/media/saveas/Secondary-Storage/Masters/CS234/CS234_Reinforcement_Learning/Final Project/CS234_Final_Project/results/trajectory_optimization/nlp/TRACK4_330m/base/ipopt_single_stage_controls.png

Generating animation...
  Saved: /run/media/saveas/Secondary-Storage/Masters/CS234/CS234_Reinforcement_Learning/Final Project/CS234_Final_Project/results/trajectory_optimization/nlp/TRACK4_330m/base/ipopt_single_stage_animation.gif

======================================================================
SUMMARY
======================================================================
Selected attempt: baseline
Attempt                    N      Subs   Clear    Iters    Time [s]   Cost [s]   Max Sigma    Min Clear [m]  Accepted
-----------------------------------------------------------------------------------------------------------------------------
baseline                   120    7      0.000    108      34.94      18.6651    0.000e+00    inf            True

All outputs saved to: /run/media/saveas/Secondary-Storage/Masters/CS234/CS234_Reinforcement_Learning/Final Project/CS234_Final_Project/results/trajectory_optimization/nlp/TRACK4_330m/base
